benchmark/results/graph__15-1000-0.10-03_4/error_log/graph__15-1000-0.10-03_4_Quinton_Benders_primal_sub_ERRORLOG.lp
\ This file has been generated by DOcplex
\ ENCODING=ISO-8859-1
\Problem name: Quinton Benders_primal_sub

Maximize
 obj: tau
Subject To
 c1: tau <= 0.000782472613
 c2: y_a0_proc_0 + y_a0_proc_2 - tau = 0
 c3: y_a0_proc_0 <= 1
 c4: y_a0_proc_2 <= 0
 c5: tau <= 0.001742160279
 c6: y_a1_proc_0 + y_a1_proc_1 + y_a1_proc_2 - tau = 0
 c7: y_a1_proc_0 <= 0
 c8: y_a1_proc_1 <= 0
 c9: y_a1_proc_2 <= 1
 c10: tau <= 0.000991080278
 c11: y_a2_proc_2 - tau = 0
 c12: y_a2_proc_2 <= 1
 c13: tau <= 0.001189060642
 c14: y_a3_proc_0 + y_a3_proc_2 - tau = 0
 c15: y_a3_proc_0 <= 0
 c16: y_a3_proc_2 <= 1
 c17: tau <= 0.001053740780
 c18: y_a4_proc_1 + y_a4_proc_2 - tau = 0
 c19: y_a4_proc_1 <= 1
 c20: y_a4_proc_2 <= 0
 c21: tau <= 0.001204819277
 c22: y_a5_proc_0 + y_a5_proc_1 + y_a5_proc_2 - tau = 0
 c23: y_a5_proc_0 <= 0
 c24: y_a5_proc_1 <= 1
 c25: y_a5_proc_2 <= 0
 c26: tau <= 0.000853242321
 c27: y_a6_proc_0 + y_a6_proc_1 + y_a6_proc_2 - tau = 0
 c28: y_a6_proc_0 <= 1
 c29: y_a6_proc_1 <= 0
 c30: y_a6_proc_2 <= 0
 c31: tau <= 0.000922509225
 c32: y_a7_proc_1 + y_a7_proc_2 - tau = 0
 c33: y_a7_proc_1 <= 1
 c34: y_a7_proc_2 <= 0
 c35: tau <= 0.000779423227
 c36: y_a8_proc_0 + y_a8_proc_1 + y_a8_proc_2 - tau = 0
 c37: y_a8_proc_0 <= 0
 c38: y_a8_proc_1 <= 1
 c39: y_a8_proc_2 <= 0
 c40: tau <= 0.001231527094
 c41: y_a9_proc_0 + y_a9_proc_1 + y_a9_proc_2 - tau = 0
 c42: y_a9_proc_0 <= 0
 c43: y_a9_proc_1 <= 0
 c44: y_a9_proc_2 <= 1
 c45: tau <= 0.001540832049
 c46: y_a10_proc_1 + y_a10_proc_2 - tau = 0
 c47: y_a10_proc_1 <= 0
 c48: y_a10_proc_2 <= 1
 c49: tau <= 0.000846740051
 c50: y_a11_proc_0 + y_a11_proc_2 - tau = 0
 c51: y_a11_proc_0 <= 0
 c52: y_a11_proc_2 <= 1
 c53: tau <= 0.010526315789
 c54: y_a12_proc_0 + y_a12_proc_1 + y_a12_proc_2 - tau = 0
 c55: y_a12_proc_0 <= 0
 c56: y_a12_proc_1 <= 1
 c57: y_a12_proc_2 <= 0
 c58: tau <= 0.001992031873
 c59: y_a13_proc_0 + y_a13_proc_1 - tau = 0
 c60: y_a13_proc_0 <= 0
 c61: y_a13_proc_1 <= 1
 c62: tau <= 0.001019367992
 c63: y_a14_proc_0 + y_a14_proc_2 - tau = 0
 c64: y_a14_proc_0 <= 1
 c65: y_a14_proc_2 <= 0
 c66: u_a0 - u_a1 - 1182 y_a1_proc_0 - 929 y_a1_proc_1 - 574 y_a1_proc_2 >= 0
 c67: u_a1 - u_a2 - 1009 y_a2_proc_2 >= 0
 c68: u_a2 - u_a3 - 768 y_a3_proc_0 - 841 y_a3_proc_2 >= 0
 c69: u_a2 - u_a4 - 949 y_a4_proc_1 - 760 y_a4_proc_2 >= -1
 c70: u_a5 - u_a1 - 1182 y_a1_proc_0 - 929 y_a1_proc_1 - 574 y_a1_proc_2 >= 0
 c71: u_a6 - u_a0 - 1278 y_a0_proc_0 - 881 y_a0_proc_2 >= 0
 c72: u_a1 - u_a7 - 1084 y_a7_proc_1 - 759 y_a7_proc_2 >= 0
 c73: u_a8 - u_a5 - 1100 y_a5_proc_0 - 830 y_a5_proc_1 - 1278 y_a5_proc_2 >= 0
 c74: u_a9 - u_a2 - 1009 y_a2_proc_2 >= 0
 c75: u_a10 - u_a9 - 1098 y_a9_proc_0 - 1144 y_a9_proc_1 - 812 y_a9_proc_2 >= 0
 c76: u_a11 - u_a5 - 1100 y_a5_proc_0 - 830 y_a5_proc_1 - 1278 y_a5_proc_2 >= 0
 c77: u_a12 - u_a8 - 911 y_a8_proc_0 - 1283 y_a8_proc_1 - 998 y_a8_proc_2 >= 0
 c78: u_a3 - u_a13 - 717 y_a13_proc_0 - 502 y_a13_proc_1 >= 0
 c79: u_a14 - u_a9 - 1098 y_a9_proc_0 - 1144 y_a9_proc_1 - 812 y_a9_proc_2 >= 
      -1
 c80: - 829 y_a11_proc_0 - 1181 y_a11_proc_2 >= -1
 c81: u_a13 - u_a6 - 1172 y_a6_proc_0 - 957 y_a6_proc_1 - 760 y_a6_proc_2 >= -1
 c82: u_a0 - u_a11 - 829 y_a11_proc_0 - 1181 y_a11_proc_2 >= -1
 c83: u_a7 - u_a11 - 829 y_a11_proc_0 - 1181 y_a11_proc_2 >= -1
 c84: u_a12 - u_a14 - 981 y_a14_proc_0 - 787 y_a14_proc_2 >= 0
 c85: u_a9 - u_a5 - 1100 y_a5_proc_0 - 830 y_a5_proc_1 - 1278 y_a5_proc_2 >= 0
 c86: u_a13 - u_a14 - 981 y_a14_proc_0 - 787 y_a14_proc_2 >= 0
 c87: u_a4 - u_a10 - 1027 y_a10_proc_1 - 649 y_a10_proc_2 >= 0
 c88: u_a14 - u_a4 - 949 y_a4_proc_1 - 760 y_a4_proc_2 >= -1
 c89: u_a13 - u_a10 - 1027 y_a10_proc_1 - 649 y_a10_proc_2 >= -1
 c90: - 646 y_a12_proc_0 - 95 y_a12_proc_1 - 906 y_a12_proc_2 >= -1
 c91: u_a7 - u_a14 - 981 y_a14_proc_0 - 787 y_a14_proc_2 >= 0
 c92: u_a1 - u_a0 - 881 y_a0_proc_2 >= -2567
 c93: u_a1 - u_a0 - 1278 y_a0_proc_0 >= -2567
 c94: u_a0 - u_a1 - 574 y_a1_proc_2 >= 0
 c95: u_a0 - u_a1 - 1182 y_a1_proc_0 >= 0
 c96: u_a2 - u_a0 - 881 y_a0_proc_2 >= -2567
 c97: u_a0 - u_a2 - 1009 y_a2_proc_2 >= 0
 c98: u_a3 - u_a0 - 881 y_a0_proc_2 >= -1285
 c99: u_a3 - u_a0 - 1278 y_a0_proc_0 >= -1285
 c100: u_a0 - u_a3 - 841 y_a3_proc_2 >= -1282
 c101: u_a0 - u_a3 - 768 y_a3_proc_0 >= -1282
 c102: u_a4 - u_a0 - 881 y_a0_proc_2 >= 0
 c103: u_a0 - u_a4 - 760 y_a4_proc_2 >= -5133
 c104: u_a5 - u_a0 - 881 y_a0_proc_2 >= -3850
 c105: u_a5 - u_a0 - 1278 y_a0_proc_0 >= -2567
 c106: u_a0 - u_a5 - 1278 y_a5_proc_2 >= -1283
 c107: u_a0 - u_a5 - 1100 y_a5_proc_0 >= 0
 c108: u_a6 - u_a0 - 881 y_a0_proc_2 >= -2566
 c109: u_a6 - u_a0 - 1278 y_a0_proc_0 >= 0
 c110: u_a0 - u_a6 - 760 y_a6_proc_2 >= -2567
 c111: u_a0 - u_a6 - 1172 y_a6_proc_0 >= -1
 c112: u_a7 - u_a0 - 881 y_a0_proc_2 >= -5133
 c113: u_a0 - u_a7 - 759 y_a7_proc_2 >= 0
 c114: u_a8 - u_a0 - 881 y_a0_proc_2 >= -1283
 c115: u_a8 - u_a0 - 1278 y_a0_proc_0 >= 0
 c116: u_a0 - u_a8 - 998 y_a8_proc_2 >= -3850
 c117: u_a0 - u_a8 - 911 y_a8_proc_0 >= -2567
 c118: u_a9 - u_a0 - 881 y_a0_proc_2 >= -2567
 c119: u_a9 - u_a0 - 1278 y_a0_proc_0 >= -2567
 c120: u_a0 - u_a9 - 812 y_a9_proc_2 >= 0
 c121: u_a0 - u_a9 - 1098 y_a9_proc_0 >= 0
 c122: u_a10 - u_a0 - 881 y_a0_proc_2 >= -2566
 c123: u_a0 - u_a10 - 649 y_a10_proc_2 >= -1
 c124: u_a11 - u_a0 - 881 y_a0_proc_2 >= -2566
 c125: u_a11 - u_a0 - 1278 y_a0_proc_0 >= -2566
 c126: u_a0 - u_a11 - 1181 y_a11_proc_2 >= -1
 c127: u_a0 - u_a11 - 829 y_a11_proc_0 >= -1
 c128: u_a12 - u_a0 - 881 y_a0_proc_2 >= 999997433
 c129: u_a12 - u_a0 - 1278 y_a0_proc_0 >= 999998716
 c130: u_a0 - u_a12 - 906 y_a12_proc_2 >= -1000002566
 c131: u_a0 - u_a12 - 646 y_a12_proc_0 >= -1000001283
 c132: u_a13 - u_a0 - 1278 y_a0_proc_0 >= -2567
 c133: u_a0 - u_a13 - 717 y_a13_proc_0 >= 0
 c134: u_a14 - u_a0 - 881 y_a0_proc_2 >= -2567
 c135: u_a14 - u_a0 - 1278 y_a0_proc_0 >= -1
 c136: u_a0 - u_a14 - 787 y_a14_proc_2 >= -2566
 c137: u_a0 - u_a14 - 981 y_a14_proc_0 >= 0
 c138: u_a2 - u_a1 - 574 y_a1_proc_2 >= -1
 c139: u_a1 - u_a2 - 1009 y_a2_proc_2 >= 0
 c140: u_a3 - u_a1 - 574 y_a1_proc_2 >= -1
 c141: u_a3 - u_a1 - 1182 y_a1_proc_0 >= -2567
 c142: u_a1 - u_a3 - 841 y_a3_proc_2 >= 0
 c143: u_a1 - u_a3 - 768 y_a3_proc_0 >= -2566
 c144: u_a4 - u_a1 - 574 y_a1_proc_2 >= -2566
 c145: u_a4 - u_a1 - 929 y_a1_proc_1 >= -2566
 c146: u_a1 - u_a4 - 760 y_a4_proc_2 >= -1
 c147: u_a1 - u_a4 - 949 y_a4_proc_1 >= -1
 c148: u_a5 - u_a1 - 574 y_a1_proc_2 >= -2566
 c149: u_a5 - u_a1 - 1182 y_a1_proc_0 >= -3849
 c150: u_a5 - u_a1 - 929 y_a1_proc_1 >= -2566
 c151: u_a1 - u_a5 - 1278 y_a5_proc_2 >= -1
 c152: u_a1 - u_a5 - 1100 y_a5_proc_0 >= -1284
 c153: u_a1 - u_a5 - 830 y_a5_proc_1 >= -1
 c154: u_a6 - u_a1 - 574 y_a1_proc_2 >= -2566
 c155: u_a6 - u_a1 - 1182 y_a1_proc_0 >= -2566
 c156: u_a6 - u_a1 - 929 y_a1_proc_1 >= -3849
 c157: u_a1 - u_a6 - 760 y_a6_proc_2 >= -1
 c158: u_a1 - u_a6 - 1172 y_a6_proc_0 >= -1
 c159: u_a1 - u_a6 - 957 y_a6_proc_1 >= -1284
 c160: u_a7 - u_a1 - 574 y_a1_proc_2 >= -2567
 c161: u_a7 - u_a1 - 929 y_a1_proc_1 >= -2567
 c162: u_a1 - u_a7 - 759 y_a7_proc_2 >= 0
 c163: u_a1 - u_a7 - 1084 y_a7_proc_1 >= 0
 c164: u_a8 - u_a1 - 574 y_a1_proc_2 >= -2566
 c165: u_a8 - u_a1 - 1182 y_a1_proc_0 >= -3849
 c166: u_a8 - u_a1 - 929 y_a1_proc_1 >= -2566
 c167: u_a1 - u_a8 - 998 y_a8_proc_2 >= -1
 c168: u_a1 - u_a8 - 911 y_a8_proc_0 >= -1284
 c169: u_a1 - u_a8 - 1283 y_a8_proc_1 >= -1
 c170: u_a9 - u_a1 - 574 y_a1_proc_2 >= 0
 c171: u_a9 - u_a1 - 1182 y_a1_proc_0 >= -2566
 c172: u_a9 - u_a1 - 929 y_a1_proc_1 >= -2566
 c173: u_a1 - u_a9 - 812 y_a9_proc_2 >= -1
 c174: u_a1 - u_a9 - 1098 y_a9_proc_0 >= -2567
 c175: u_a1 - u_a9 - 1144 y_a9_proc_1 >= -2567
 c176: u_a10 - u_a1 - 574 y_a1_proc_2 >= 0
 c177: u_a10 - u_a1 - 929 y_a1_proc_1 >= -2566
 c178: u_a1 - u_a10 - 649 y_a10_proc_2 >= -1
 c179: u_a1 - u_a10 - 1027 y_a10_proc_1 >= -2567
 c180: u_a11 - u_a1 - 574 y_a1_proc_2 >= 0
 c181: u_a11 - u_a1 - 1182 y_a1_proc_0 >= -2566
 c182: u_a1 - u_a11 - 1181 y_a11_proc_2 >= -1
 c183: u_a1 - u_a11 - 829 y_a11_proc_0 >= -2567
 c184: u_a12 - u_a1 - 574 y_a1_proc_2 >= 999996150
 c185: u_a12 - u_a1 - 1182 y_a1_proc_0 >= 999994867
 c186: u_a12 - u_a1 - 929 y_a1_proc_1 >= 999996150
 c187: u_a1 - u_a12 - 906 y_a12_proc_2 >= -999998717
 c188: u_a1 - u_a12 - 646 y_a12_proc_0 >= -1000000000
 c189: u_a1 - u_a12 - 95 y_a12_proc_1 >= -999998717
 c190: u_a13 - u_a1 - 1182 y_a1_proc_0 >= -3850
 c191: u_a13 - u_a1 - 929 y_a1_proc_1 >= -2567
 c192: u_a1 - u_a13 - 717 y_a13_proc_0 >= -1283
 c193: u_a1 - u_a13 - 502 y_a13_proc_1 >= 0
 c194: u_a14 - u_a1 - 574 y_a1_proc_2 >= -2567
 c195: u_a14 - u_a1 - 1182 y_a1_proc_0 >= -2567
 c196: u_a1 - u_a14 - 787 y_a14_proc_2 >= 0
 c197: u_a1 - u_a14 - 981 y_a14_proc_0 >= 0
 c198: u_a3 - u_a2 - 1009 y_a2_proc_2 >= -1
 c199: u_a2 - u_a3 - 841 y_a3_proc_2 >= 0
 c200: u_a4 - u_a2 - 1009 y_a2_proc_2 >= 0
 c201: u_a2 - u_a4 - 760 y_a4_proc_2 >= -2567
 c202: u_a5 - u_a2 - 1009 y_a2_proc_2 >= -2565
 c203: u_a2 - u_a5 - 1278 y_a5_proc_2 >= -2
 c204: u_a6 - u_a2 - 1009 y_a2_proc_2 >= -2566
 c205: u_a2 - u_a6 - 760 y_a6_proc_2 >= -1
 c206: u_a7 - u_a2 - 1009 y_a2_proc_2 >= -2565
 c207: u_a2 - u_a7 - 759 y_a7_proc_2 >= -2
 c208: u_a8 - u_a2 - 1009 y_a2_proc_2 >= -2566
 c209: u_a2 - u_a8 - 998 y_a8_proc_2 >= -1
 c210: u_a9 - u_a2 - 1009 y_a2_proc_2 >= 0
 c211: u_a2 - u_a9 - 812 y_a9_proc_2 >= -1
 c212: u_a10 - u_a2 - 1009 y_a2_proc_2 >= 0
 c213: u_a2 - u_a10 - 649 y_a10_proc_2 >= -1
 c214: u_a11 - u_a2 - 1009 y_a2_proc_2 >= 0
 c215: u_a2 - u_a11 - 1181 y_a11_proc_2 >= -1
 c216: u_a12 - u_a2 - 1009 y_a2_proc_2 >= 999996150
 c217: u_a2 - u_a12 - 906 y_a12_proc_2 >= -999998717
 c218: u_a14 - u_a2 - 1009 y_a2_proc_2 >= -2567
 c219: u_a2 - u_a14 - 787 y_a14_proc_2 >= 0
 c220: u_a4 - u_a3 - 841 y_a3_proc_2 >= -2566
 c221: u_a3 - u_a4 - 760 y_a4_proc_2 >= -1
 c222: u_a5 - u_a3 - 841 y_a3_proc_2 >= -2566
 c223: u_a5 - u_a3 - 768 y_a3_proc_0 >= -3849
 c224: u_a3 - u_a5 - 1278 y_a5_proc_2 >= -1
 c225: u_a3 - u_a5 - 1100 y_a5_proc_0 >= -1284
 c226: u_a6 - u_a3 - 841 y_a3_proc_2 >= -2566
 c227: u_a6 - u_a3 - 768 y_a3_proc_0 >= -2566
 c228: u_a3 - u_a6 - 760 y_a6_proc_2 >= -1
 c229: u_a3 - u_a6 - 1172 y_a6_proc_0 >= -1
 c230: u_a7 - u_a3 - 841 y_a3_proc_2 >= -2567
 c231: u_a3 - u_a7 - 759 y_a7_proc_2 >= 0
 c232: u_a8 - u_a3 - 841 y_a3_proc_2 >= -2566
 c233: u_a8 - u_a3 - 768 y_a3_proc_0 >= -3849
 c234: u_a3 - u_a8 - 998 y_a8_proc_2 >= -1
 c235: u_a3 - u_a8 - 911 y_a8_proc_0 >= -1284
 c236: u_a9 - u_a3 - 841 y_a3_proc_2 >= 0
 c237: u_a9 - u_a3 - 768 y_a3_proc_0 >= -2566
 c238: u_a3 - u_a9 - 812 y_a9_proc_2 >= -1
 c239: u_a3 - u_a9 - 1098 y_a9_proc_0 >= -2567
 c240: u_a10 - u_a3 - 841 y_a3_proc_2 >= 0
 c241: u_a3 - u_a10 - 649 y_a10_proc_2 >= -1
 c242: u_a11 - u_a3 - 841 y_a3_proc_2 >= 0
 c243: u_a11 - u_a3 - 768 y_a3_proc_0 >= -2566
 c244: u_a3 - u_a11 - 1181 y_a11_proc_2 >= -1
 c245: u_a3 - u_a11 - 829 y_a11_proc_0 >= -2567
 c246: u_a12 - u_a3 - 841 y_a3_proc_2 >= 999996150
 c247: u_a12 - u_a3 - 768 y_a3_proc_0 >= 999994867
 c248: u_a3 - u_a12 - 906 y_a12_proc_2 >= -999998717
 c249: u_a3 - u_a12 - 646 y_a12_proc_0 >= -1000000000
 c250: u_a13 - u_a3 - 768 y_a3_proc_0 >= -5133
 c251: u_a3 - u_a13 - 717 y_a13_proc_0 >= 0
 c252: u_a14 - u_a3 - 841 y_a3_proc_2 >= -2567
 c253: u_a14 - u_a3 - 768 y_a3_proc_0 >= -2567
 c254: u_a3 - u_a14 - 787 y_a14_proc_2 >= 0
 c255: u_a3 - u_a14 - 981 y_a14_proc_0 >= 0
 c256: u_a5 - u_a4 - 760 y_a4_proc_2 >= -2567
 c257: u_a5 - u_a4 - 949 y_a4_proc_1 >= -1
 c258: u_a4 - u_a5 - 1278 y_a5_proc_2 >= -2566
 c259: u_a4 - u_a5 - 830 y_a5_proc_1 >= 0
 c260: u_a6 - u_a4 - 760 y_a4_proc_2 >= -3850
 c261: u_a6 - u_a4 - 949 y_a4_proc_1 >= -2567
 c262: u_a4 - u_a6 - 760 y_a6_proc_2 >= -1283
 c263: u_a4 - u_a6 - 957 y_a6_proc_1 >= 0
 c264: u_a7 - u_a4 - 760 y_a4_proc_2 >= -2567
 c265: u_a7 - u_a4 - 949 y_a4_proc_1 >= -1
 c266: u_a4 - u_a7 - 759 y_a7_proc_2 >= -2566
 c267: u_a4 - u_a7 - 1084 y_a7_proc_1 >= 0
 c268: u_a8 - u_a4 - 760 y_a4_proc_2 >= -2566
 c269: u_a8 - u_a4 - 949 y_a4_proc_1 >= 0
 c270: u_a4 - u_a8 - 998 y_a8_proc_2 >= -2567
 c271: u_a4 - u_a8 - 1283 y_a8_proc_1 >= -1
 c272: u_a9 - u_a4 - 760 y_a4_proc_2 >= -2567
 c273: u_a9 - u_a4 - 949 y_a4_proc_1 >= -2567
 c274: u_a4 - u_a9 - 812 y_a9_proc_2 >= 0
 c275: u_a4 - u_a9 - 1144 y_a9_proc_1 >= 0
 c276: u_a10 - u_a4 - 760 y_a4_proc_2 >= -2566
 c277: u_a10 - u_a4 - 949 y_a4_proc_1 >= -2566
 c278: u_a4 - u_a10 - 649 y_a10_proc_2 >= -1
 c279: u_a4 - u_a10 - 1027 y_a10_proc_1 >= -1
 c280: u_a11 - u_a4 - 760 y_a4_proc_2 >= -2566
 c281: u_a4 - u_a11 - 1181 y_a11_proc_2 >= -1
 c282: u_a12 - u_a4 - 760 y_a4_proc_2 >= 999996149
 c283: u_a12 - u_a4 - 949 y_a4_proc_1 >= 999998715
 c284: u_a4 - u_a12 - 906 y_a12_proc_2 >= -1000001282
 c285: u_a4 - u_a12 - 95 y_a12_proc_1 >= -999998716
 c286: u_a13 - u_a4 - 949 y_a4_proc_1 >= -1
 c287: u_a4 - u_a13 - 502 y_a13_proc_1 >= 0
 c288: u_a14 - u_a4 - 760 y_a4_proc_2 >= -5133
 c289: u_a4 - u_a14 - 787 y_a14_proc_2 >= 0
 c290: u_a6 - u_a5 - 1278 y_a5_proc_2 >= -3849
 c291: u_a6 - u_a5 - 1100 y_a5_proc_0 >= -2566
 c292: u_a6 - u_a5 - 830 y_a5_proc_1 >= -2566
 c293: u_a5 - u_a6 - 760 y_a6_proc_2 >= -1284
 c294: u_a5 - u_a6 - 1172 y_a6_proc_0 >= -1
 c295: u_a5 - u_a6 - 957 y_a6_proc_1 >= -1
 c296: u_a7 - u_a5 - 1278 y_a5_proc_2 >= -2567
 c297: u_a7 - u_a5 - 830 y_a5_proc_1 >= -1
 c298: u_a5 - u_a7 - 759 y_a7_proc_2 >= -2566
 c299: u_a5 - u_a7 - 1084 y_a7_proc_1 >= 0
 c300: u_a8 - u_a5 - 1278 y_a5_proc_2 >= -2566
 c301: u_a8 - u_a5 - 1100 y_a5_proc_0 >= -2566
 c302: u_a8 - u_a5 - 830 y_a5_proc_1 >= 0
 c303: u_a5 - u_a8 - 998 y_a8_proc_2 >= -2567
 c304: u_a5 - u_a8 - 911 y_a8_proc_0 >= -2567
 c305: u_a5 - u_a8 - 1283 y_a8_proc_1 >= -1
 c306: u_a9 - u_a5 - 1278 y_a5_proc_2 >= -2566
 c307: u_a9 - u_a5 - 1100 y_a5_proc_0 >= -3849
 c308: u_a9 - u_a5 - 830 y_a5_proc_1 >= -2566
 c309: u_a5 - u_a9 - 812 y_a9_proc_2 >= -1
 c310: u_a5 - u_a9 - 1098 y_a9_proc_0 >= -1284
 c311: u_a5 - u_a9 - 1144 y_a9_proc_1 >= -1
 c312: u_a10 - u_a5 - 1278 y_a5_proc_2 >= -2566
 c313: u_a10 - u_a5 - 830 y_a5_proc_1 >= -2566
 c314: u_a5 - u_a10 - 649 y_a10_proc_2 >= -1
 c315: u_a5 - u_a10 - 1027 y_a10_proc_1 >= -1
 c316: u_a11 - u_a5 - 1278 y_a5_proc_2 >= -2566
 c317: u_a11 - u_a5 - 1100 y_a5_proc_0 >= -3849
 c318: u_a5 - u_a11 - 1181 y_a11_proc_2 >= -1
 c319: u_a5 - u_a11 - 829 y_a11_proc_0 >= -1284
 c320: u_a12 - u_a5 - 1278 y_a5_proc_2 >= 999996150
 c321: u_a12 - u_a5 - 1100 y_a5_proc_0 >= 999996150
 c322: u_a12 - u_a5 - 830 y_a5_proc_1 >= 999998716
 c323: u_a5 - u_a12 - 906 y_a12_proc_2 >= -1000001283
 c324: u_a5 - u_a12 - 646 y_a12_proc_0 >= -1000001283
 c325: u_a5 - u_a12 - 95 y_a12_proc_1 >= -999998717
 c326: u_a13 - u_a5 - 1100 y_a5_proc_0 >= -2567
 c327: u_a13 - u_a5 - 830 y_a5_proc_1 >= -1
 c328: u_a5 - u_a13 - 717 y_a13_proc_0 >= -2566
 c329: u_a5 - u_a13 - 502 y_a13_proc_1 >= 0
 c330: u_a14 - u_a5 - 1278 y_a5_proc_2 >= -3850
 c331: u_a14 - u_a5 - 1100 y_a5_proc_0 >= -2567
 c332: u_a5 - u_a14 - 787 y_a14_proc_2 >= -1283
 c333: u_a5 - u_a14 - 981 y_a14_proc_0 >= 0
 c334: u_a7 - u_a6 - 760 y_a6_proc_2 >= -3850
 c335: u_a7 - u_a6 - 957 y_a6_proc_1 >= -2567
 c336: u_a6 - u_a7 - 759 y_a7_proc_2 >= -1283
 c337: u_a6 - u_a7 - 1084 y_a7_proc_1 >= 0
 c338: u_a8 - u_a6 - 760 y_a6_proc_2 >= -3849
 c339: u_a8 - u_a6 - 1172 y_a6_proc_0 >= -2566
 c340: u_a8 - u_a6 - 957 y_a6_proc_1 >= -2566
 c341: u_a6 - u_a8 - 998 y_a8_proc_2 >= -1284
 c342: u_a6 - u_a8 - 911 y_a8_proc_0 >= -1
 c343: u_a6 - u_a8 - 1283 y_a8_proc_1 >= -1
 c344: u_a9 - u_a6 - 760 y_a6_proc_2 >= -2567
 c345: u_a9 - u_a6 - 1172 y_a6_proc_0 >= -2567
 c346: u_a9 - u_a6 - 957 y_a6_proc_1 >= -3850
 c347: u_a6 - u_a9 - 812 y_a9_proc_2 >= 0
 c348: u_a6 - u_a9 - 1098 y_a9_proc_0 >= 0
 c349: u_a6 - u_a9 - 1144 y_a9_proc_1 >= -1283
 c350: u_a10 - u_a6 - 760 y_a6_proc_2 >= -2566
 c351: u_a10 - u_a6 - 957 y_a6_proc_1 >= -3849
 c352: u_a6 - u_a10 - 649 y_a10_proc_2 >= -1
 c353: u_a6 - u_a10 - 1027 y_a10_proc_1 >= -1284
 c354: u_a11 - u_a6 - 760 y_a6_proc_2 >= -2566
 c355: u_a11 - u_a6 - 1172 y_a6_proc_0 >= -2566
 c356: u_a6 - u_a11 - 1181 y_a11_proc_2 >= -1
 c357: u_a6 - u_a11 - 829 y_a11_proc_0 >= -1
 c358: u_a12 - u_a6 - 760 y_a6_proc_2 >= 999997433
 c359: u_a12 - u_a6 - 1172 y_a6_proc_0 >= 999998716
 c360: u_a12 - u_a6 - 957 y_a6_proc_1 >= 999998716
 c361: u_a6 - u_a12 - 906 y_a12_proc_2 >= -1000002566
 c362: u_a6 - u_a12 - 646 y_a12_proc_0 >= -1000001283
 c363: u_a6 - u_a12 - 95 y_a12_proc_1 >= -1000001283
 c364: u_a13 - u_a6 - 1172 y_a6_proc_0 >= -2567
 c365: u_a13 - u_a6 - 957 y_a6_proc_1 >= -2567
 c366: u_a6 - u_a13 - 717 y_a13_proc_0 >= 0
 c367: u_a6 - u_a13 - 502 y_a13_proc_1 >= 0
 c368: u_a14 - u_a6 - 760 y_a6_proc_2 >= -2567
 c369: u_a14 - u_a6 - 1172 y_a6_proc_0 >= -1
 c370: u_a6 - u_a14 - 787 y_a14_proc_2 >= -2566
 c371: u_a6 - u_a14 - 981 y_a14_proc_0 >= 0
 c372: u_a8 - u_a7 - 759 y_a7_proc_2 >= -2566
 c373: u_a8 - u_a7 - 1084 y_a7_proc_1 >= 0
 c374: u_a7 - u_a8 - 998 y_a8_proc_2 >= -2567
 c375: u_a7 - u_a8 - 1283 y_a8_proc_1 >= -1
 c376: u_a9 - u_a7 - 759 y_a7_proc_2 >= -2566
 c377: u_a9 - u_a7 - 1084 y_a7_proc_1 >= -2566
 c378: u_a7 - u_a9 - 812 y_a9_proc_2 >= -1
 c379: u_a7 - u_a9 - 1144 y_a9_proc_1 >= -1
 c380: u_a10 - u_a7 - 759 y_a7_proc_2 >= -2566
 c381: u_a10 - u_a7 - 1084 y_a7_proc_1 >= -2566
 c382: u_a7 - u_a10 - 649 y_a10_proc_2 >= -1
 c383: u_a7 - u_a10 - 1027 y_a10_proc_1 >= -1
 c384: u_a11 - u_a7 - 759 y_a7_proc_2 >= -2566
 c385: u_a7 - u_a11 - 1181 y_a11_proc_2 >= -1
 c386: u_a12 - u_a7 - 759 y_a7_proc_2 >= 999996150
 c387: u_a12 - u_a7 - 1084 y_a7_proc_1 >= 999998716
 c388: u_a7 - u_a12 - 906 y_a12_proc_2 >= -1000001283
 c389: u_a7 - u_a12 - 95 y_a12_proc_1 >= -999998717
 c390: u_a13 - u_a7 - 1084 y_a7_proc_1 >= -1
 c391: u_a7 - u_a13 - 502 y_a13_proc_1 >= 0
 c392: u_a14 - u_a7 - 759 y_a7_proc_2 >= -5133
 c393: u_a7 - u_a14 - 787 y_a14_proc_2 >= 0
 c394: u_a9 - u_a8 - 998 y_a8_proc_2 >= -1
 c395: u_a9 - u_a8 - 911 y_a8_proc_0 >= -1284
 c396: u_a9 - u_a8 - 1283 y_a8_proc_1 >= -1
 c397: u_a8 - u_a9 - 812 y_a9_proc_2 >= -2566
 c398: u_a8 - u_a9 - 1098 y_a9_proc_0 >= -3849
 c399: u_a8 - u_a9 - 1144 y_a9_proc_1 >= -2566
 c400: u_a10 - u_a8 - 998 y_a8_proc_2 >= -2567
 c401: u_a10 - u_a8 - 1283 y_a8_proc_1 >= -2567
 c402: u_a8 - u_a10 - 649 y_a10_proc_2 >= 0
 c403: u_a8 - u_a10 - 1027 y_a10_proc_1 >= 0
 c404: u_a11 - u_a8 - 998 y_a8_proc_2 >= 0
 c405: u_a11 - u_a8 - 911 y_a8_proc_0 >= -1283
 c406: u_a8 - u_a11 - 1181 y_a11_proc_2 >= -2567
 c407: u_a8 - u_a11 - 829 y_a11_proc_0 >= -3850
 c408: u_a12 - u_a8 - 998 y_a8_proc_2 >= 999996149
 c409: u_a12 - u_a8 - 911 y_a8_proc_0 >= 999996149
 c410: u_a12 - u_a8 - 1283 y_a8_proc_1 >= 999998715
 c411: u_a8 - u_a12 - 906 y_a12_proc_2 >= -1000001282
 c412: u_a8 - u_a12 - 646 y_a12_proc_0 >= -1000001282
 c413: u_a8 - u_a12 - 95 y_a12_proc_1 >= -999998716
 c414: u_a13 - u_a8 - 911 y_a8_proc_0 >= -2567
 c415: u_a13 - u_a8 - 1283 y_a8_proc_1 >= -1
 c416: u_a8 - u_a13 - 717 y_a13_proc_0 >= -2566
 c417: u_a8 - u_a13 - 502 y_a13_proc_1 >= 0
 c418: u_a14 - u_a8 - 998 y_a8_proc_2 >= -3851
 c419: u_a14 - u_a8 - 911 y_a8_proc_0 >= -2568
 c420: u_a8 - u_a14 - 787 y_a14_proc_2 >= -1282
 c421: u_a8 - u_a14 - 981 y_a14_proc_0 >= 1
 c422: u_a10 - u_a9 - 812 y_a9_proc_2 >= 0
 c423: u_a10 - u_a9 - 1144 y_a9_proc_1 >= -2566
 c424: u_a9 - u_a10 - 649 y_a10_proc_2 >= -1
 c425: u_a9 - u_a10 - 1027 y_a10_proc_1 >= -2567
 c426: u_a11 - u_a9 - 812 y_a9_proc_2 >= 0
 c427: u_a11 - u_a9 - 1098 y_a9_proc_0 >= -2566
 c428: u_a9 - u_a11 - 1181 y_a11_proc_2 >= -1
 c429: u_a9 - u_a11 - 829 y_a11_proc_0 >= -2567
 c430: u_a12 - u_a9 - 812 y_a9_proc_2 >= 999998716
 c431: u_a12 - u_a9 - 1098 y_a9_proc_0 >= 999997433
 c432: u_a12 - u_a9 - 1144 y_a9_proc_1 >= 999998716
 c433: u_a9 - u_a12 - 906 y_a12_proc_2 >= -1000001283
 c434: u_a9 - u_a12 - 646 y_a12_proc_0 >= -1000002566
 c435: u_a9 - u_a12 - 95 y_a12_proc_1 >= -1000001283
 c436: u_a13 - u_a9 - 1098 y_a9_proc_0 >= -3850
 c437: u_a13 - u_a9 - 1144 y_a9_proc_1 >= -2567
 c438: u_a9 - u_a13 - 717 y_a13_proc_0 >= -1283
 c439: u_a9 - u_a13 - 502 y_a13_proc_1 >= 0
 c440: u_a14 - u_a9 - 812 y_a9_proc_2 >= -2567
 c441: u_a14 - u_a9 - 1098 y_a9_proc_0 >= -2567
 c442: u_a9 - u_a14 - 787 y_a14_proc_2 >= 0
 c443: u_a9 - u_a14 - 981 y_a14_proc_0 >= 0
 c444: u_a11 - u_a10 - 649 y_a10_proc_2 >= 0
 c445: u_a10 - u_a11 - 1181 y_a11_proc_2 >= -1
 c446: u_a12 - u_a10 - 649 y_a10_proc_2 >= 999996149
 c447: u_a12 - u_a10 - 1027 y_a10_proc_1 >= 999996149
 c448: u_a10 - u_a12 - 906 y_a12_proc_2 >= -999998716
 c449: u_a10 - u_a12 - 95 y_a12_proc_1 >= -999998716
 c450: u_a13 - u_a10 - 1027 y_a10_proc_1 >= -2567
 c451: u_a10 - u_a13 - 502 y_a13_proc_1 >= 0
 c452: u_a14 - u_a10 - 649 y_a10_proc_2 >= -2567
 c453: u_a10 - u_a14 - 787 y_a14_proc_2 >= 0
 c454: u_a12 - u_a11 - 1181 y_a11_proc_2 >= 999996149
 c455: u_a12 - u_a11 - 829 y_a11_proc_0 >= 999994866
 c456: u_a11 - u_a12 - 906 y_a12_proc_2 >= -999998716
 c457: u_a11 - u_a12 - 646 y_a12_proc_0 >= -999999999
 c458: u_a13 - u_a11 - 829 y_a11_proc_0 >= -5134
 c459: u_a11 - u_a13 - 717 y_a13_proc_0 >= 1
 c460: u_a14 - u_a11 - 1181 y_a11_proc_2 >= -2568
 c461: u_a14 - u_a11 - 829 y_a11_proc_0 >= -2568
 c462: u_a11 - u_a14 - 787 y_a14_proc_2 >= 1
 c463: u_a11 - u_a14 - 981 y_a14_proc_0 >= 1
 c464: u_a13 - u_a12 - 646 y_a12_proc_0 >= -1000001283
 c465: u_a13 - u_a12 - 95 y_a12_proc_1 >= -999998717
 c466: u_a12 - u_a13 - 717 y_a13_proc_0 >= 999996150
 c467: u_a12 - u_a13 - 502 y_a13_proc_1 >= 999998716
 c468: u_a14 - u_a12 - 906 y_a12_proc_2 >= -1000002566
 c469: u_a14 - u_a12 - 646 y_a12_proc_0 >= -1000001283
 c470: u_a12 - u_a14 - 787 y_a14_proc_2 >= 999997433
 c471: u_a12 - u_a14 - 981 y_a14_proc_0 >= 999998716
 c472: u_a14 - u_a13 - 717 y_a13_proc_0 >= -2567
 c473: u_a13 - u_a14 - 981 y_a14_proc_0 >= 0

Bounds
End
